
n_res = 4;
rcap = [16, 16, 485, 470];
rtype = [1, 1, 2, 2];
n_tasks = 100;
modes =  [{1, 2, 3}, {4, 5, 6}, {7, 8, 9}, {10, 11, 12}, {13, 14, 15}, {16, 17, 18}, {19, 20, 21}, {22, 23, 24}, {25, 26, 27}, {28, 29, 30}, {31, 32, 33}, {34, 35, 36}, {37, 38, 39}, {40, 41, 42}, {43, 44, 45}, {46, 47, 48}, {49, 50, 51}, {52, 53, 54}, {55, 56, 57}, {58, 59, 60}, {61, 62, 63}, {64, 65, 66}, {67, 68, 69}, {70, 71, 72}, {73, 74, 75}, {76, 77, 78}, {79, 80, 81}, {82, 83, 84}, {85, 86, 87}, {88, 89, 90}, {91, 92, 93}, {94, 95, 96}, {97, 98, 99}, {100, 101, 102}, {103, 104, 105}, {106, 107, 108}, {109, 110, 111}, {112, 113, 114}, {115, 116, 117}, {118, 119, 120}, {121, 122, 123}, {124, 125, 126}, {127, 128, 129}, {130, 131, 132}, {133, 134, 135}, {136, 137, 138}, {139, 140, 141}, {142, 143, 144}, {145, 146, 147}, {148, 149, 150}, {151, 152, 153}, {154, 155, 156}, {157, 158, 159}, {160, 161, 162}, {163, 164, 165}, {166, 167, 168}, {169, 170, 171}, {172, 173, 174}, {175, 176, 177}, {178, 179, 180}, {181, 182, 183}, {184, 185, 186}, {187, 188, 189}, {190, 191, 192}, {193, 194, 195}, {196, 197, 198}, {199, 200, 201}, {202, 203, 204}, {205, 206, 207}, {208, 209, 210}, {211, 212, 213}, {214, 215, 216}, {217, 218, 219}, {220, 221, 222}, {223, 224, 225}, {226, 227, 228}, {229, 230, 231}, {232, 233, 234}, {235, 236, 237}, {238, 239, 240}, {241, 242, 243}, {244, 245, 246}, {247, 248, 249}, {250, 251, 252}, {253, 254, 255}, {256, 257, 258}, {259, 260, 261}, {262, 263, 264}, {265, 266, 267}, {268, 269, 270}, {271, 272, 273}, {274, 275, 276}, {277, 278, 279}, {280, 281, 282}, {283, 284, 285}, {286, 287, 288}, {289, 290, 291}, {292, 293, 294}, {295, 296, 297}, {298, 299, 300}];
succ =  [{34, 29, 16, 12, 8, 6}, {35, 34, 28, 26, 25, 23, 20, 18, 10}, {34, 28, 26, 23, 21, 20, 18, 10}, {34, 25, 20, 18, 16, 10, 8}, {29, 25, 16, 6}, {36, 35, 28, 26, 24, 23, 22, 18}, {35, 28, 18, 11}, {42, 36, 35, 28, 27, 24, 22}, {28, 25, 23, 22, 18}, {42, 39, 36, 29, 24, 22}, {42, 36, 29, 23, 22}, {42, 39, 25, 24, 22}, {42, 39, 36, 25, 22}, {42, 39, 37, 36, 35, 33, 32, 31, 30}, {42, 37, 33, 32, 31, 30, 28}, {42, 39, 35, 24}, {42, 37, 27, 24}, {42, 38, 33, 32, 31, 30, 27}, {46, 35, 33, 32, 28}, {47, 46, 44, 42, 41, 36, 33, 30}, {49, 47, 43, 41, 36, 35, 33, 31}, {38, 37, 33, 32, 31, 30}, {49, 47, 45, 43, 40, 39, 38, 37, 31}, {49, 46, 44, 38, 33, 32, 30}, {49, 45, 41, 40, 38, 31}, {56, 52, 51, 50, 49, 47, 46, 45, 43, 41}, {56, 52, 51, 50, 49, 47, 45, 41}, {51, 49, 44, 39, 38}, {57, 52, 51, 50, 49, 45, 44, 41}, {60, 57, 56, 53, 52, 51, 50, 48, 45, 43}, {63, 60, 56, 52, 51, 50, 48, 46, 44}, {52, 51, 50, 47, 43, 41}, {60, 56, 50, 45, 40}, {56, 49, 46, 41, 38}, {52, 51, 44, 38}, {56, 45, 38}, {57, 56, 55, 41}, {63, 60, 57, 53, 50, 48}, {66, 63, 60, 57, 56, 53, 52, 50}, {57, 55, 53, 52, 51, 48}, {64, 63, 60, 53, 48}, {57, 53, 49, 45}, {68, 67, 66, 64, 59, 58, 55}, {68, 67, 66, 64, 59, 53}, {64, 63, 62, 58, 54}, {73, 69, 68, 59, 58, 57}, {67, 62, 59, 58, 57}, {74, 70, 67, 54}, {74, 70, 68, 66, 64, 59}, {74, 64, 55}, {73, 70, 69, 68, 64, 59}, {69, 65, 64, 62, 58}, {69, 62, 61, 58}, {69, 68, 66, 59}, {70, 69, 62, 61}, {73, 72, 68, 61}, {75, 74, 72, 71, 65, 64}, {85, 80, 78, 76, 75, 74, 72, 71, 70}, {72, 61}, {75, 72, 69, 67, 65}, {77, 76, 75, 71, 65}, {80, 78, 77, 76, 73, 72}, {80, 76, 75, 69}, {85, 84, 83, 80, 79, 77, 76}, {94, 93, 87, 86, 85, 83, 81, 80, 78}, {81, 73, 71}, {94, 88, 87, 86, 84, 83, 79, 76}, {94, 86, 84, 83, 80, 78}, {95, 94, 88, 86, 85, 84, 81, 79}, {90, 89, 83, 77}, {94, 88, 87, 86, 84, 79}, {95, 94, 93, 91, 89, 88, 86, 82}, {99, 92, 90, 89, 86, 84, 83}, {94, 93, 92, 90, 86, 83, 81}, {94, 90, 89, 88, 86, 83}, {93, 90, 89, 82, 81}, {94, 93, 86, 82, 81}, {90, 88, 79}, {99, 91, 89, 82}, {99, 89, 88}, {100, 99, 98, 97, 91}, {100, 98, 97, 92}, {98, 97, 95, 91}, {98, 97, 93, 91}, {99, 98, 90}, {98, 97, 96}, {98, 97, 96}, {97, 92}, {100, 96}, {91}, {96}, {96}, {96}, {99}, {96}, {}, {}, {}, {}, {}];
n_opt = 300;
dur = [1, 9, 10, 1, 4, 6, 4, 6, 9, 2, 4, 7, 4, 8, 9, 6, 9, 10, 4, 5, 8, 2, 6, 10, 4, 5, 8, 4, 5, 8, 2, 8, 9, 3, 4, 5, 6, 7, 8, 4, 6, 7, 3, 6, 10, 1, 2, 5, 4, 6, 7, 2, 5, 8, 1, 2, 10, 1, 3, 4, 1, 4, 5, 1, 6, 8, 2, 8, 9, 2, 3, 7, 3, 5, 7, 4, 8, 9, 2, 3, 9, 5, 6, 8, 2, 4, 7, 4, 5, 7, 2, 3, 7, 2, 3, 4, 3, 4, 5, 1, 5, 8, 4, 7, 8, 1, 8, 10, 4, 8, 9, 3, 4, 6, 1, 2, 3, 1, 3, 8, 1, 2, 7, 4, 5, 8, 5, 9, 10, 1, 5, 10, 2, 8, 10, 1, 5, 7, 5, 6, 9, 5, 6, 9, 6, 9, 10, 6, 7, 10, 4, 5, 6, 4, 6, 9, 5, 6, 10, 2, 3, 8, 8, 9, 10, 1, 6, 7, 1, 7, 8, 5, 8, 10, 5, 9, 10, 5, 6, 7, 3, 8, 9, 2, 5, 10, 3, 4, 10, 2, 5, 7, 4, 9, 10, 2, 3, 10, 1, 9, 10, 2, 3, 4, 2, 6, 10, 4, 7, 8, 3, 4, 5, 4, 5, 6, 1, 8, 9, 1, 2, 7, 1, 2, 5, 2, 3, 9, 1, 7, 9, 1, 2, 3, 5, 6, 7, 1, 2, 6, 2, 5, 10, 1, 7, 8, 3, 4, 5, 4, 9, 10, 1, 3, 7, 6, 8, 9, 1, 3, 6, 1, 2, 10, 1, 9, 10, 2, 4, 8, 1, 5, 7, 3, 4, 10, 4, 6, 10, 2, 6, 9, 6, 7, 10, 1, 3, 7, 2, 6, 7, 5, 7, 9, 3, 9, 10, 2, 3, 4];
rreq = [|4, 2, 2, 3, 3, 3, 3, 3, 3, 5, 5, 5, 5, 4, 2, 5, 3, 2, 4, 4, 3, 3, 3, 2, 3, 3, 2, 3, 3, 2, 1, 1, 1, 3, 2, 1, 4, 4, 4, 5, 5, 5, 5, 4, 2, 2, 1, 1, 3, 3, 3, 4, 4, 3, 5, 4, 3, 5, 3, 2, 3, 2, 2, 5, 4, 4, 4, 2, 1, 3, 2, 1, 4, 4, 4, 4, 3, 2, 4, 2, 2, 2, 1, 1, 5, 3, 2, 4, 4, 4, 4, 4, 3, 3, 2, 2, 3, 3, 3, 5, 4, 3, 4, 4, 4, 2, 1, 1, 5, 4, 4, 2, 2, 1, 5, 5, 5, 2, 2, 1, 3, 2, 2, 1, 1, 1, 2, 1, 1, 3, 2, 2, 5, 4, 3, 5, 2, 2, 2, 2, 2, 4, 3, 3, 3, 2, 1, 4, 3, 2, 3, 3, 3, 4, 2, 2, 4, 4, 4, 5, 4, 4, 4, 3, 3, 4, 4, 4, 3, 2, 1, 2, 2, 2, 5, 4, 4, 4, 3, 2, 3, 2, 2, 3, 2, 2, 2, 2, 2, 4, 3, 2, 3, 2, 2, 3, 1, 1, 3, 2, 2, 5, 2, 1, 2, 2, 2, 3, 2, 1, 2, 2, 2, 2, 2, 1, 2, 2, 2, 5, 3, 3, 4, 3, 3, 4, 4, 3, 4, 3, 1, 5, 3, 3, 2, 2, 2, 4, 4, 4, 5, 4, 3, 4, 2, 2, 4, 4, 4, 2, 2, 1, 4, 4, 4, 3, 1, 1, 4, 3, 3, 3, 2, 2, 3, 3, 3, 3, 1, 1, 1, 1, 1, 3, 2, 2, 1, 1, 1, 4, 4, 4, 3, 2, 1, 2, 2, 2, 3, 1, 1, 1, 1, 1, 4, 3, 3, 1, 1, 1
 |4, 4, 4, 5, 3, 1, 4, 3, 3, 3, 2, 2, 5, 3, 3, 4, 3, 3, 4, 3, 2, 3, 2, 2, 4, 3, 3, 3, 3, 3, 3, 3, 3, 4, 3, 2, 4, 2, 1, 4, 4, 3, 5, 4, 3, 1, 1, 1, 4, 4, 4, 5, 4, 4, 3, 3, 3, 4, 4, 4, 4, 4, 4, 2, 2, 2, 2, 2, 2, 4, 2, 1, 2, 2, 2, 2, 1, 1, 2, 1, 1, 4, 2, 2, 4, 4, 4, 5, 5, 5, 5, 4, 4, 5, 3, 3, 5, 3, 2, 2, 1, 1, 4, 3, 2, 2, 2, 2, 2, 2, 2, 1, 1, 1, 2, 2, 2, 2, 1, 1, 4, 4, 4, 3, 2, 2, 2, 2, 2, 1, 1, 1, 4, 4, 4, 4, 4, 3, 4, 3, 1, 2, 1, 1, 4, 3, 2, 5, 3, 1, 3, 2, 2, 4, 4, 4, 2, 2, 2, 2, 2, 2, 2, 1, 1, 5, 4, 2, 5, 4, 4, 4, 4, 4, 2, 2, 2, 2, 2, 2, 5, 4, 4, 4, 3, 2, 4, 3, 3, 5, 4, 4, 2, 2, 2, 5, 3, 3, 1, 1, 1, 4, 3, 1, 5, 3, 3, 5, 3, 2, 4, 3, 2, 5, 2, 2, 4, 3, 3, 1, 1, 1, 3, 2, 1, 5, 4, 4, 2, 2, 1, 4, 4, 4, 5, 3, 3, 4, 2, 1, 4, 2, 2, 4, 2, 2, 3, 3, 2, 4, 3, 1, 4, 4, 4, 3, 3, 2, 2, 2, 2, 4, 4, 3, 3, 2, 2, 2, 2, 2, 4, 2, 1, 2, 1, 1, 5, 4, 2, 2, 1, 1, 5, 4, 3, 5, 3, 3, 5, 4, 4, 1, 1, 1, 4, 4, 4, 1, 1, 1
 |8, 4, 3, 3, 2, 2, 10, 7, 6, 10, 10, 10, 4, 3, 3, 6, 5, 3, 8, 6, 6, 10, 9, 8, 3, 2, 2, 6, 6, 4, 2, 1, 1, 6, 3, 1, 7, 3, 1, 9, 9, 8, 2, 1, 1, 7, 7, 7, 6, 6, 4, 9, 6, 3, 6, 5, 5, 6, 5, 5, 9, 4, 2, 5, 5, 5, 6, 4, 4, 6, 6, 6, 3, 3, 2, 10, 9, 9, 7, 4, 3, 6, 6, 5, 4, 3, 3, 9, 7, 6, 4, 4, 4, 3, 3, 3, 8, 7, 7, 4, 3, 2, 9, 6, 4, 7, 6, 6, 7, 7, 7, 3, 3, 2, 7, 6, 5, 6, 6, 5, 8, 5, 5, 6, 4, 2, 4, 4, 4, 7, 5, 5, 9, 8, 6, 8, 6, 3, 7, 5, 5, 8, 6, 6, 6, 4, 3, 9, 7, 6, 7, 7, 6, 7, 3, 1, 8, 4, 2, 10, 7, 6, 4, 3, 2, 6, 6, 4, 4, 4, 4, 9, 9, 9, 10, 6, 4, 7, 7, 7, 5, 5, 5, 6, 4, 3, 7, 4, 4, 2, 1, 1, 9, 5, 4, 5, 3, 3, 5, 4, 4, 2, 1, 1, 8, 8, 8, 1, 1, 1, 7, 5, 4, 5, 4, 3, 9, 7, 7, 8, 7, 7, 8, 8, 7, 9, 8, 8, 6, 4, 1, 7, 7, 6, 4, 4, 1, 8, 8, 5, 7, 6, 6, 4, 4, 3, 8, 7, 6, 9, 4, 3, 8, 8, 6, 8, 8, 5, 5, 3, 3, 7, 5, 3, 6, 4, 3, 8, 6, 3, 8, 7, 7, 7, 6, 5, 4, 3, 3, 10, 7, 4, 3, 2, 2, 7, 6, 5, 6, 4, 3, 6, 5, 5, 10, 7, 6, 6, 5, 3
 |2, 2, 1, 8, 8, 7, 8, 5, 4, 10, 8, 7, 8, 8, 5, 7, 4, 3, 8, 8, 8, 1, 1, 1, 9, 5, 5, 8, 7, 6, 8, 5, 4, 3, 3, 1, 10, 8, 5, 5, 4, 4, 9, 4, 2, 9, 7, 5, 6, 5, 6, 7, 7, 7, 5, 4, 2, 1, 1, 1, 2, 2, 2, 9, 8, 7, 5, 5, 3, 6, 4, 3, 8, 5, 3, 8, 8, 5, 8, 8, 7, 8, 6, 6, 7, 7, 6, 7, 4, 2, 8, 6, 6, 4, 3, 2, 5, 4, 2, 3, 2, 2, 9, 8, 8, 3, 2, 1, 9, 8, 7, 3, 2, 1, 5, 4, 3, 8, 8, 6, 6, 6, 5, 9, 7, 7, 7, 7, 2, 4, 4, 3, 9, 9, 9, 9, 7, 6, 8, 7, 7, 3, 3, 1, 5, 5, 5, 8, 5, 3, 4, 3, 3, 7, 3, 1, 8, 6, 1, 8, 4, 4, 9, 7, 7, 5, 5, 3, 7, 7, 7, 8, 7, 6, 5, 3, 3, 9, 4, 2, 6, 4, 3, 6, 4, 3, 4, 3, 1, 7, 4, 3, 7, 6, 6, 5, 3, 1, 4, 3, 1, 9, 8, 6, 8, 6, 5, 6, 4, 2, 5, 3, 2, 4, 3, 2, 5, 5, 4, 8, 5, 3, 6, 5, 4, 7, 7, 7, 9, 8, 7, 7, 7, 7, 8, 7, 6, 1, 1, 1, 6, 6, 6, 7, 6, 4, 7, 7, 5, 8, 7, 7, 3, 1, 1, 7, 6, 5, 10, 7, 6, 2, 2, 2, 8, 7, 7, 10, 7, 6, 6, 5, 4, 4, 3, 2, 6, 5, 3, 4, 3, 2, 6, 3, 1, 6, 4, 2, 4, 2, 2, 10, 9, 8, 10, 6, 3, 6, 6, 5|];